# Solution for model count
# Objective value = 9
z#1 1
z#2 1
z#3 0
z#4 0
z#5 1
z#6 0
z#7 1
z#8 1
z#9 0
z#10 0
z#11 1
z#12 0
z#13 0
z#14 1
z#15 0
z#16 0
z#17 1
z#18 0
z#19 0
z#20 0
z#21 1
z#22 0
z#23 0
z#24 0
x#24 0
x#23 0
x#22 0
x#21 1081
x#20 0
x#19 0
x#18 0
x#17 59
x#16 0
x#15 0
x#14 1438
x#13 0
x#12 0
x#11 286
x#10 0
x#9 0
x#8 1048
x#7 2898
x#6 0
x#5 575
x#4 0
x#3 0
x#2 2428
x#1 187
